column=9;
row=9;
left=[0, 0, 0, 3, 0, 3, 4, 4, 1];
right=[3, 0, 0, 0, 2, 0, 0, 4, 0];
top=[5, 1, 0, 0, 0, 0, 0, 0, 0];
bottom=[1, 0, 0, 5, 0, 0, 2, 0, 0];
Board=[|1,9,0,0,0,0,0,0,0|5,0,0,9,1,3,0,4,0|0,6,0,0,0,5,0,0,0|0,3,6,0,0,0,0,7,0|0,0,0,0,0,0,2,0,0|0,5,0,0,0,4,0,0,3|0,0,0,6,0,0,1,0,9|0,7,0,5,8,0,4,0,0|0,2,0,0,3,1,0,0,0|]